TYPE : Vertex Cover
DIMENSION: 36
EDGE_DATA_SECTION:
0 1
0 4
0 5
0 12
0 14
0 15
0 18
0 22
0 24
0 26
0 29
0 31
0 32
1 2
1 5
1 8
1 12
1 21
1 24
1 25
1 26
1 27
1 34
2 5
2 14
2 15
2 24
2 27
2 30
2 31
2 32
2 33
2 34
3 5
3 11
3 12
3 18
3 20
3 23
3 26
3 32
3 35
4 5
4 8
4 9
4 12
4 16
4 21
4 22
4 23
4 27
4 29
4 30
4 34
5 10
5 11
5 15
5 18
5 20
5 22
5 24
5 26
5 28
5 30
5 32
5 33
6 11
6 15
6 16
6 17
6 19
6 25
6 27
6 28
6 29
6 31
6 33
7 9
7 16
7 23
7 25
7 26
7 28
7 31
8 12
8 14
8 17
8 20
8 22
8 23
8 24
8 26
8 33
9 10
9 19
9 21
9 23
9 24
9 26
9 27
9 30
10 11
10 12
10 20
10 24
10 31
10 35
11 14
11 18
11 24
11 25
11 26
11 31
11 33
11 34
12 15
12 16
12 25
12 27
12 30
12 32
12 35
13 14
13 15
13 19
13 23
13 24
13 27
13 29
13 32
13 33
14 16
14 19
14 21
14 29
14 31
15 16
15 17
15 21
15 23
15 26
15 29
15 32
15 33
15 34
15 35
16 18
16 19
16 21
16 22
16 25
16 26
16 28
16 31
17 21
17 28
17 31
17 32
17 35
18 21
18 22
18 23
18 30
18 32
19 21
19 28
19 31
19 34
20 26
20 30
20 31
21 30
21 31
21 34
22 24
22 34
23 25
23 26
23 29
23 30
23 31
24 25
24 26
24 32
25 26
25 33
25 35
26 28
26 32
26 33
27 34
28 29
28 30
28 35
32 33
32 34
33 34
33 35
34 35
-1
VERTEX_DEGREE:
13.0 11.0 11.0 9.0 13.0 17.0 11.0 7.0 11.0 10.0 8.0 12.0 13.0 9.0 10.0 16.0 14.0 8.0 10.0 9.0 7.0 12.0 8.0 13.0 13.0 11.0 17.0 8.0 10.0 8.0 10.0 13.0 13.0 12.0 12.0 9.0
VERTEX_COVER:
0 2 4 5 6 8 9 11 12 13 14 15 16 18 20 21 23 24 25 26 27 28 31 32 34 35
EOF
